experiments/sat_smt/run/sat-r/results/lauren.res
solved=true
solvingTime=10.633792877197265625
nActions=11