experiments/sat_smt/run/sat-r/results/lauren.out
Timesteps: 1
s UNSATISFIABLE
real 0.04
user 0.01
sys 0.00
Timesteps: 2
s UNSATISFIABLE
real 0.09
user 0.01
sys 0.00
Timesteps: 3
s UNSATISFIABLE
real 0.12
user 0.04
sys 0.00
Timesteps: 4
s UNSATISFIABLE
real 0.20
user 0.11
sys 0.00
Timesteps: 5
s UNSATISFIABLE
real 0.22
user 0.16
sys 0.00
Timesteps: 6
s UNSATISFIABLE
real 0.43
user 0.33
sys 0.01
Timesteps: 7
s UNSATISFIABLE
real 0.89
user 0.79
sys 0.01
Timesteps: 8
s UNSATISFIABLE
real 1.12
user 1.01
sys 0.01
Timesteps: 9
s UNSATISFIABLE
real 1.59
user 1.46
sys 0.01
Timesteps: 10
s UNSATISFIABLE
real 2.71
user 2.52
sys 0.01
Timesteps: 11
s SATISFIABLE
real 3.02
user 2.84
sys 0.02
